p cnf 146 364
a 8 6 4 2 61 65 23 78 39 37 35 33 31 112 117 125 133 1 17 22 30 0
d 18 61 1 0
d 41 78 22 0
d 25 65 17 0
d 111 112 30 0
d 3 2 0
d 5 4 0
d 7 6 0
d 9 8 0
d 10 8 0
d 11 8 0
d 12 6 8 0
d 13 4 6 8 0
d 14 2 4 6 8 0
d 15 1 2 4 6 8 0
d 16 1 2 4 6 8 0
d 19 17 61 1 0
d 20 17 61 1 0
d 21 1 2 4 6 8 17 61 0
d 24 23 0
d 26 23 65 17 0
d 27 22 23 65 17 0
d 28 22 23 65 17 0
d 29 1 2 4 6 8 17 61 22 23 65 0
d 32 31 0
d 34 33 0
d 36 35 0
d 38 37 0
d 40 39 0
d 42 39 78 22 0
d 43 37 39 78 22 0
d 44 35 37 39 78 22 0
d 45 33 35 37 39 78 22 0
d 46 31 33 35 37 39 78 22 0
d 47 30 31 33 35 37 39 78 22 0
d 48 30 31 33 35 37 39 78 22 0
d 49 1 2 4 6 8 17 61 22 23 65 30 31 33 35 37 39 78 0
d 50 8 0
d 51 8 0
d 52 6 8 0
d 53 6 8 0
d 54 8 6 0
d 55 4 6 8 0
d 56 4 6 8 0
d 57 8 6 4 0
d 58 2 4 6 8 0
d 59 2 4 6 8 0
d 60 8 6 4 2 0
d 62 61 2 4 6 8 0
d 63 61 2 4 6 8 0
d 64 8 6 4 2 61 0
d 66 65 61 1 0
d 67 61 0
d 68 61 2 4 6 8 0
d 69 65 61 2 4 6 8 0
d 70 65 61 1 2 4 6 8 0
d 71 8 6 4 2 61 65 1 0
d 72 23 65 17 0
d 73 65 0
d 74 65 61 2 4 6 8 0
d 75 23 65 61 2 4 6 8 0
d 76 23 65 17 61 2 4 6 8 0
d 77 8 6 4 2 61 65 1 23 17 0
d 79 78 23 65 17 0
d 80 23 65 61 2 4 6 8 0
d 81 78 23 65 61 2 4 6 8 0
d 82 78 23 65 17 61 2 4 6 8 0
d 83 8 6 4 2 61 65 1 23 17 78 0
d 84 39 78 22 0
d 85 78 0
d 86 78 23 65 61 2 4 6 8 0
d 87 39 78 23 65 61 2 4 6 8 0
d 88 39 78 22 23 65 61 2 4 6 8 0
d 89 8 6 4 2 61 65 1 23 17 78 39 22 0
d 90 37 39 78 22 0
d 91 39 78 23 65 61 2 4 6 8 0
d 92 37 39 78 23 65 61 2 4 6 8 0
d 93 37 39 78 22 23 65 61 2 4 6 8 0
d 94 8 6 4 2 61 65 1 23 17 78 39 22 37 0
d 95 35 37 39 78 22 0
d 96 37 39 78 23 65 61 2 4 6 8 0
d 97 35 37 39 78 23 65 61 2 4 6 8 0
d 98 35 37 39 78 22 23 65 61 2 4 6 8 0
d 99 8 6 4 2 61 65 1 23 17 78 39 22 37 35 0
d 100 33 35 37 39 78 22 0
d 101 35 37 39 78 23 65 61 2 4 6 8 0
d 102 33 35 37 39 78 23 65 61 2 4 6 8 0
d 103 33 35 37 39 78 22 23 65 61 2 4 6 8 0
d 104 8 6 4 2 61 65 1 23 17 78 39 22 37 35 33 0
d 105 31 33 35 37 39 78 22 0
d 106 31 33 35 37 39 78 22 0
d 107 33 35 37 39 78 23 65 61 2 4 6 8 0
d 108 31 33 35 37 39 78 23 65 61 2 4 6 8 0
d 109 31 33 35 37 39 78 22 23 65 61 2 4 6 8 0
d 110 8 6 4 2 61 65 1 23 17 78 39 22 37 35 33 31 0
d 113 31 33 35 37 39 78 23 65 61 2 4 6 8 0
d 114 112 31 33 35 37 39 78 23 65 61 2 4 6 8 0
d 115 112 30 31 33 35 37 39 78 23 65 61 2 4 6 8 0
d 116 8 6 4 2 61 65 1 23 17 78 39 22 37 35 33 31 112 30 0
d 118 112 0
d 119 112 31 33 35 37 39 78 22 0
d 120 117 112 31 33 35 37 39 78 22 0
d 121 112 31 33 35 37 39 78 23 65 61 2 4 6 8 0
d 122 117 112 31 33 35 37 39 78 23 65 61 2 4 6 8 0
d 123 117 112 31 33 35 37 39 78 22 23 65 61 2 4 6 8 0
d 124 8 6 4 2 61 65 1 23 17 78 39 22 37 35 33 31 112 30 117 0
d 126 117 0
d 127 117 112 31 33 35 37 39 78 22 0
d 128 125 117 112 31 33 35 37 39 78 22 0
d 129 117 112 31 33 35 37 39 78 23 65 61 2 4 6 8 0
d 130 125 117 112 31 33 35 37 39 78 23 65 61 2 4 6 8 0
d 131 125 117 112 31 33 35 37 39 78 22 23 65 61 2 4 6 8 0
d 132 8 6 4 2 61 65 1 23 17 78 39 22 37 35 33 31 112 30 117 125 0
d 134 125 0
d 135 125 117 112 31 33 35 37 39 78 22 0
d 136 133 125 117 112 31 33 35 37 39 78 22 0
d 137 125 117 112 31 33 35 37 39 78 23 65 61 2 4 6 8 0
d 138 133 125 117 112 31 33 35 37 39 78 23 65 61 2 4 6 8 0
d 139 133 125 117 112 31 33 35 37 39 78 22 23 65 61 2 4 6 8 0
d 140 8 6 4 2 61 65 1 23 17 78 39 22 37 35 33 31 112 30 117 125 133 0
d 141 133 0
d 142 133 125 117 112 31 33 35 37 39 78 22 0
d 143 133 125 117 112 31 33 35 37 39 78 23 65 61 2 4 6 8 0
d 144 133 125 117 112 31 33 35 37 39 78 22 23 65 61 2 4 6 8 0
d 145 8 6 4 2 61 65 1 23 17 78 39 22 37 35 33 31 112 30 117 125 133 0
d 146 1 2 4 6 8 17 61 22 23 65 30 31 33 35 37 39 78 112 117 125 133 0
3 2 0
-3 -2 0
5 4 0
-5 -4 0
7 6 0
-7 -6 0
9 8 0
-9 -8 0
10 -8 0
10 -9 0
-10 8 9 0
-11 9 0
-11 10 0
11 -9 -10 0
-12 7 0
-12 11 0
12 -7 -11 0
-13 5 0
-13 12 0
13 -5 -12 0
-14 3 0
-14 13 0
14 -3 -13 0
15 -1 -14 0
15 1 14 0
-15 -1 14 0
-15 1 -14 0
16 15 0
-16 -15 0
19 -17 -18 0
19 17 18 0
-19 -17 18 0
-19 17 -18 0
20 19 0
-20 -19 0
21 -16 0
21 -20 0
-21 16 20 0
24 23 0
-24 -23 0
-26 24 0
-26 25 0
26 -24 -25 0
27 -22 -26 0
27 22 26 0
-27 -22 26 0
-27 22 -26 0
28 27 0
-28 -27 0
29 -21 0
29 -28 0
-29 21 28 0
32 31 0
-32 -31 0
34 33 0
-34 -33 0
36 35 0
-36 -35 0
38 37 0
-38 -37 0
40 39 0
-40 -39 0
-42 40 0
-42 41 0
42 -40 -41 0
-43 38 0
-43 42 0
43 -38 -42 0
-44 36 0
-44 43 0
44 -36 -43 0
-45 34 0
-45 44 0
45 -34 -44 0
-46 32 0
-46 45 0
46 -32 -45 0
47 -30 -46 0
47 30 46 0
-47 -30 46 0
-47 30 -46 0
48 47 0
-48 -47 0
49 -29 0
49 -48 0
-49 29 48 0
-50 8 0
-50 10 0
50 -8 -10 0
51 -50 -50 0
51 50 50 0
-51 -50 50 0
-51 50 -50 0
-52 6 0
-52 11 0
52 -6 -11 0
53 -52 -52 0
53 52 52 0
-53 -52 52 0
-53 52 -52 0
-54 51 0
-54 53 0
54 -51 -53 0
-55 4 0
-55 12 0
55 -4 -12 0
56 -55 -55 0
56 55 55 0
-56 -55 55 0
-56 55 -55 0
-57 54 0
-57 56 0
57 -54 -56 0
-58 2 0
-58 13 0
58 -2 -13 0
59 -58 -58 0
59 58 58 0
-59 -58 58 0
-59 58 -58 0
-60 57 0
-60 59 0
60 -57 -59 0
-62 61 0
-62 14 0
62 -61 -14 0
63 -62 -62 0
63 62 62 0
-63 -62 62 0
-63 62 -62 0
-64 60 0
-64 63 0
64 -60 -63 0
-66 65 0
-66 18 0
66 -65 -18 0
67 61 0
-67 -61 0
-68 67 0
-68 14 0
68 -67 -14 0
-69 65 0
-69 68 0
69 -65 -68 0
70 -66 -69 0
70 66 69 0
-70 -66 69 0
-70 66 -69 0
-71 64 0
-71 70 0
71 -64 -70 0
-72 23 0
-72 25 0
72 -23 -25 0
73 65 0
-73 -65 0
-74 73 0
-74 68 0
74 -73 -68 0
-75 23 0
-75 74 0
75 -23 -74 0
76 -72 -75 0
76 72 75 0
-76 -72 75 0
-76 72 -75 0
-77 71 0
-77 76 0
77 -71 -76 0
-79 78 0
-79 26 0
79 -78 -26 0
-80 24 0
-80 74 0
80 -24 -74 0
-81 78 0
-81 80 0
81 -78 -80 0
82 -79 -81 0
82 79 81 0
-82 -79 81 0
-82 79 -81 0
-83 77 0
-83 82 0
83 -77 -82 0
-84 39 0
-84 41 0
84 -39 -41 0
85 78 0
-85 -78 0
-86 85 0
-86 80 0
86 -85 -80 0
-87 39 0
-87 86 0
87 -39 -86 0
88 -84 -87 0
88 84 87 0
-88 -84 87 0
-88 84 -87 0
-89 83 0
-89 88 0
89 -83 -88 0
-90 37 0
-90 42 0
90 -37 -42 0
-91 40 0
-91 86 0
91 -40 -86 0
-92 37 0
-92 91 0
92 -37 -91 0
93 -90 -92 0
93 90 92 0
-93 -90 92 0
-93 90 -92 0
-94 89 0
-94 93 0
94 -89 -93 0
-95 35 0
-95 43 0
95 -35 -43 0
-96 38 0
-96 91 0
96 -38 -91 0
-97 35 0
-97 96 0
97 -35 -96 0
98 -95 -97 0
98 95 97 0
-98 -95 97 0
-98 95 -97 0
-99 94 0
-99 98 0
99 -94 -98 0
-100 33 0
-100 44 0
100 -33 -44 0
-101 36 0
-101 96 0
101 -36 -96 0
-102 33 0
-102 101 0
102 -33 -101 0
103 -100 -102 0
103 100 102 0
-103 -100 102 0
-103 100 -102 0
-104 99 0
-104 103 0
104 -99 -103 0
105 -31 0
105 -45 0
-105 31 45 0
106 105 0
-106 -105 0
-107 34 0
-107 101 0
107 -34 -101 0
-108 31 0
-108 107 0
108 -31 -107 0
109 -106 -108 0
109 106 108 0
-109 -106 108 0
-109 106 -108 0
-110 104 0
-110 109 0
110 -104 -109 0
-113 32 0
-113 107 0
113 -32 -107 0
-114 112 0
-114 113 0
114 -112 -113 0
115 -111 -114 0
115 111 114 0
-115 -111 114 0
-115 111 -114 0
-116 110 0
-116 115 0
116 -110 -115 0
118 112 0
-118 -112 0
-119 118 0
-119 46 0
119 -118 -46 0
-120 117 0
-120 119 0
120 -117 -119 0
-121 118 0
-121 113 0
121 -118 -113 0
-122 117 0
-122 121 0
122 -117 -121 0
123 -120 -122 0
123 120 122 0
-123 -120 122 0
-123 120 -122 0
-124 116 0
-124 123 0
124 -116 -123 0
126 117 0
-126 -117 0
-127 126 0
-127 119 0
127 -126 -119 0
-128 125 0
-128 127 0
128 -125 -127 0
-129 126 0
-129 121 0
129 -126 -121 0
-130 125 0
-130 129 0
130 -125 -129 0
131 -128 -130 0
131 128 130 0
-131 -128 130 0
-131 128 -130 0
-132 124 0
-132 131 0
132 -124 -131 0
134 125 0
-134 -125 0
-135 134 0
-135 127 0
135 -134 -127 0
-136 133 0
-136 135 0
136 -133 -135 0
-137 134 0
-137 129 0
137 -134 -129 0
-138 133 0
-138 137 0
138 -133 -137 0
139 -136 -138 0
139 136 138 0
-139 -136 138 0
-139 136 -138 0
-140 132 0
-140 139 0
140 -132 -139 0
141 133 0
-141 -133 0
-142 141 0
-142 135 0
142 -141 -135 0
-143 141 0
-143 137 0
143 -141 -137 0
144 -142 -143 0
144 142 143 0
-144 -142 143 0
-144 142 -143 0
-145 140 0
-145 144 0
145 -140 -144 0
146 -49 0
146 -145 0
-146 49 145 0
146 0
